\ Model Staff Scheduling Problem
\ LP format - for model browsing. Use MPS format to capture full model detail.
Minimize
  116.9478662029809 x[0,0] + 179.6062783513911 x[0,1]
   + 198.4665564241733 x[0,2] + 70.8347569982554 x[1,0]
   + 121.5514992982078 x[1,1] + 141.2058979516983 x[1,2]
   + 135.8354034366001 x[2,0] + 185.8487169813738 x[2,1]
   + 96.81475077279123 x[2,2] + 77.68053893610568 x[3,0]
   + 79.53356055473769 x[3,1] + 190.7830593049651 x[3,2]
   + 126.9115381266891 x[4,0] + 164.6839340938419 x[4,1]
   + 165.8780136339471 x[4,2] + 116.9478662029809 x[5,0]
   + 179.6062783513911 x[5,1] + 198.4665564241733 x[5,2]
   + 70.8347569982554 x[6,0] + 121.5514992982078 x[6,1]
   + 141.2058979516983 x[6,2] + 135.8354034366001 x[7,0]
   + 185.8487169813738 x[7,1] + 96.81475077279123 x[7,2]
   + 77.68053893610568 x[8,0] + 79.53356055473769 x[8,1]
   + 190.7830593049651 x[8,2] + 126.9115381266891 x[9,0]
   + 164.6839340938419 x[9,1] + 165.8780136339471 x[9,2]
Subject To
 task_0_shift_0: x[0,0] >= 1
 task_0_shift_1: x[0,1] >= 1
 task_0_shift_2: x[0,2] >= 1
 task_1_shift_0: x[1,0] >= 1
 task_1_shift_1: x[1,1] >= 1
 task_1_shift_2: x[1,2] >= 1
 task_2_shift_0: x[2,0] >= 1
 task_2_shift_1: x[2,1] >= 1
 task_2_shift_2: x[2,2] >= 1
 task_3_shift_0: x[3,0] >= 1
 task_3_shift_1: x[3,1] >= 1
 task_3_shift_2: x[3,2] >= 1
 task_4_shift_0: x[4,0] >= 1
 task_4_shift_1: x[4,1] >= 1
 task_4_shift_2: x[4,2] >= 1
 task_5_shift_0: x[5,0] >= 1
 task_5_shift_1: x[5,1] >= 1
 task_5_shift_2: x[5,2] >= 1
 task_6_shift_0: x[6,0] >= 1
 task_6_shift_1: x[6,1] >= 1
 task_6_shift_2: x[6,2] >= 1
 task_7_shift_0: x[7,0] >= 1
 task_7_shift_1: x[7,1] >= 1
 task_7_shift_2: x[7,2] >= 1
 task_8_shift_0: x[8,0] >= 1
 task_8_shift_1: x[8,1] >= 1
 task_8_shift_2: x[8,2] >= 1
 task_9_shift_0: x[9,0] >= 1
 task_9_shift_1: x[9,1] >= 1
 task_9_shift_2: x[9,2] >= 1
 shift_0_availability: x[0,0] + x[1,0] + x[2,0] + x[3,0] + x[4,0] + x[5,0]
   + x[6,0] + x[7,0] + x[8,0] + x[9,0] <= 100
 shift_1_availability: x[0,1] + x[1,1] + x[2,1] + x[3,1] + x[4,1] + x[5,1]
   + x[6,1] + x[7,1] + x[8,1] + x[9,1] <= 100
 shift_2_availability: x[0,2] + x[1,2] + x[2,2] + x[3,2] + x[4,2] + x[5,2]
   + x[6,2] + x[7,2] + x[8,2] + x[9,2] <= 100
Bounds
End
